p cnf 10 87 
c Factors encoded in variables 1-6 and 7-10
c Target number: 481
c Factors: 37 x 13
-5 4 -3 2 -10 -9 0
-6 10 9 8 0
6 5 -4 -3 -2 -10 9 0
-4 10 -9 -8 0
-4 10 9 8 0
6 5 0
7 0
5 4 3 9 0
-6 -4 -2 -10 9 0
-6 -5 4 3 9 -8 0
6 -5 -4 -3 -8 0
6 -5 -4 2 -10 9 0
-6 -5 -3 10 8 0
-6 -4 -10 -9 0
5 4 10 9 0
6 9 -8 0
5 4 3 9 8 0
3 -9 0
2 -8 0
-6 10 9 0
-5 -4 -3 -10 -9 8 0
-5 2 10 0
1 0
-6 -5 -4 10 9 0
-6 -5 -3 -2 0
-6 -5 -4 -9 8 0
6 4 0
-4 -10 -9 8 0
6 5 4 10 0
5 4 3 8 0
5 10 0
4 -3 -2 -10 0
6 -5 10 0
3 10 9 8 0
-2 8 0
6 4 2 9 0
-4 -2 -10 9 -8 0
-6 -5 -4 -3 -2 0
4 -2 10 -8 0
6 -4 3 10 -8 0
6 -5 -4 -3 -9 8 0
5 10 9 0
6 -4 3 -10 0
5 4 3 2 9 0
6 4 10 8 0
4 10 9 8 0
2 3 4 5 6 0
-5 3 10 -9 -8 0
4 3 2 10 0
10 9 8 0
3 10 8 0
-5 -4 3 -10 -9 8 0
-6 -4 3 10 0
-6 -5 -4 -3 -8 0
4 -10 9 8 0
-4 3 2 10 0
6 5 4 0
-6 -3 -10 -9 -8 0
-4 -3 -2 10 0
6 4 -2 -10 -9 8 0
-5 -2 -10 0
-3 9 0
4 3 2 -10 0
-6 -5 4 3 -10 -9 0
-5 4 10 9 0
6 4 3 10 0
4 2 10 -9 0
-4 -3 -10 -9 8 0
-6 -5 4 -2 10 0
-4 -2 8 0
4 3 -2 10 0
6 -5 10 9 0
3 -2 10 -9 0
6 4 3 0
6 -5 -4 -3 -2 0
5 -3 10 -8 0
-6 5 -4 -3 10 -8 0
-6 -5 4 -10 -9 8 0
5 3 2 10 8 0
-5 8 0
-6 5 -4 -3 -10 -9 8 0
8 9 10 0
6 5 4 2 10 9 0
5 -4 -10 8 0
3 -2 -10 -9 -8 0
-5 4 -10 0
4 -10 -9 -8 0
